61
1 0 17
2 0 5
2 1 18
3 0 15
3 1 3
3 2 2
4 0 1
4 1 18
4 2 2
4 3 16
5 0 1
5 1 8
5 2 7
5 3 14
5 4 9
6 0 17
6 1 17
6 2 7
6 3 5
6 4 4
6 5 8
7 0 12
7 1 17
7 2 10
7 3 4
7 4 7
7 5 9
7 6 6
8 0 11
8 1 19
8 2 20
8 3 4
8 4 6
8 5 17
8 6 3
8 7 13
9 0 12
9 1 11
9 2 8
9 3 9
9 4 4
9 5 18
9 6 17
9 7 13
9 8 16
10 0 2
10 1 1
10 2 1
10 3 4
10 4 10
10 5 12
10 6 20
10 7 2
10 8 6
10 9 5
11 0 15
11 1 14
11 2 11
11 3 13
11 4 3
11 5 18
11 6 7
11 7 9
11 8 13
11 9 8
11 10 19
12 0 7
12 1 19
12 2 9
12 3 17
12 4 9
12 5 8
12 6 12
12 7 16
12 8 16
12 9 6
12 10 10
12 11 14
13 0 7
13 1 19
13 2 18
13 3 18
13 4 11
13 5 9
13 6 15
13 7 2
13 8 4
13 9 20
13 10 20
13 11 7
13 12 17
14 0 8
14 1 12
14 2 9
14 3 4
14 4 7
14 5 13
14 6 1
14 7 4
14 8 8
14 9 8
14 10 14
14 11 7
14 12 10
14 13 9
15 0 14
15 1 4
15 2 1
15 3 8
15 4 4
15 5 4
15 6 11
15 7 1
15 8 1
15 9 3
15 10 15
15 11 16
15 12 4
15 13 13
15 14 4
16 0 6
16 1 7
16 2 10
16 3 12
16 4 2
16 5 19
16 6 16
16 7 18
16 8 4
16 9 11
16 10 3
16 11 16
16 12 14
16 13 5
16 14 7
16 15 7
17 0 12
17 1 4
17 2 12
17 3 7
17 4 9
17 5 12
17 6 9
17 7 16
17 8 7
17 9 1
17 10 6
17 11 11
17 12 9
17 13 2
17 14 7
17 15 6
17 16 15
18 0 20
18 1 7
18 2 6
18 3 3
18 4 12
18 5 15
18 6 5
18 7 5
18 8 4
18 9 9
18 10 12
18 11 14
18 12 11
18 13 6
18 14 15
18 15 4
18 16 8
18 17 16
19 0 17
19 1 12
19 2 14
19 3 12
19 4 19
19 5 4
19 6 1
19 7 9
19 8 2
19 9 6
19 10 16
19 11 18
19 12 12
19 13 6
19 14 20
19 15 19
19 16 4
19 17 19
19 18 8
20 0 20
20 1 11
20 2 20
20 3 5
20 4 14
20 5 20
20 6 12
20 7 16
20 8 14
20 9 3
20 10 14
20 11 10
20 12 5
20 13 11
20 14 8
20 15 1
20 16 13
20 17 17
20 18 8
20 19 8
21 0 6
21 1 14
21 2 12
21 3 19
21 4 2
21 5 19
21 6 11
21 7 13
21 8 15
21 9 13
21 10 13
21 11 18
21 12 1
21 13 15
21 14 10
21 15 18
21 16 16
21 17 9
21 18 12
21 19 11
21 20 7
22 0 10
22 1 10
22 2 16
22 3 5
22 4 1
22 5 17
22 6 12
22 7 18
22 8 2
22 9 16
22 10 19
22 11 16
22 12 17
22 13 9
22 14 6
22 15 2
22 16 5
22 17 8
22 18 2
22 19 17
22 20 16
22 21 6
23 0 13
23 1 10
23 2 16
23 3 5
23 4 11
23 5 11
23 6 13
23 7 5
23 8 2
23 9 2
23 10 1
23 11 15
23 12 19
23 13 11
23 14 1
23 15 2
23 16 14
23 17 13
23 18 9
23 19 8
23 20 6
23 21 14
23 22 12
24 0 1
24 1 19
24 2 1
24 3 10
24 4 18
24 5 10
24 6 11
24 7 15
24 8 9
24 9 4
24 10 16
24 11 16
24 12 3
24 13 19
24 14 12
24 15 19
24 16 7
24 17 11
24 18 16
24 19 3
24 20 20
24 21 10
24 22 2
24 23 8
25 0 9
25 1 9
25 2 2
25 3 20
25 4 14
25 5 5
25 6 11
25 7 15
25 8 4
25 9 11
25 10 17
25 11 4
25 12 19
25 13 10
25 14 6
25 15 3
25 16 3
25 17 12
25 18 4
25 19 10
25 20 5
25 21 10
25 22 6
25 23 16
25 24 20
26 0 10
26 1 18
26 2 19
26 3 7
26 4 1
26 5 16
26 6 9
26 7 17
26 8 3
26 9 20
26 10 14
26 11 16
26 12 15
26 13 4
26 14 6
26 15 5
26 16 14
26 17 18
26 18 10
26 19 5
26 20 8
26 21 12
26 22 6
26 23 11
26 24 12
26 25 11
27 0 9
27 1 9
27 2 14
27 3 2
27 4 13
27 5 20
27 6 17
27 7 5
27 8 8
27 9 16
27 10 8
27 11 9
27 12 8
27 13 17
27 14 7
27 15 11
27 16 4
27 17 4
27 18 11
27 19 17
27 20 10
27 21 16
27 22 2
27 23 2
27 24 15
27 25 20
27 26 9
28 0 8
28 1 5
28 2 17
28 3 18
28 4 16
28 5 3
28 6 6
28 7 6
28 8 15
28 9 14
28 10 17
28 11 9
28 12 1
28 13 12
28 14 6
28 15 19
28 16 7
28 17 10
28 18 9
28 19 4
28 20 1
28 21 12
28 22 6
28 23 5
28 24 14
28 25 6
28 26 9
28 27 20
29 0 5
29 1 9
29 2 12
29 3 1
29 4 6
29 5 11
29 6 18
29 7 10
29 8 1
29 9 15
29 10 16
29 11 12
29 12 19
29 13 16
29 14 10
29 15 3
29 16 9
29 17 2
29 18 8
29 19 3
29 20 6
29 21 9
29 22 12
29 23 18
29 24 17
29 25 9
29 26 7
29 27 12
29 28 15
30 0 12
30 1 13
30 2 5
30 3 6
30 4 15
30 5 9
30 6 5
30 7 2
30 8 1
30 9 2
30 10 19
30 11 6
30 12 16
30 13 7
30 14 14
30 15 19
30 16 18
30 17 2
30 18 5
30 19 7
30 20 5
30 21 4
30 22 7
30 23 1
30 24 8
30 25 7
30 26 15
30 27 20
30 28 2
30 29 9
31 0 20
31 1 13
31 2 10
31 3 8
31 4 17
31 5 14
31 6 15
31 7 19
31 8 16
31 9 13
31 10 8
31 11 3
31 12 13
31 13 3
31 14 18
31 15 3
31 16 18
31 17 12
31 18 6
31 19 16
31 20 12
31 21 6
31 22 8
31 23 18
31 24 10
31 25 7
31 26 12
31 27 4
31 28 9
31 29 1
31 30 18
32 0 16
32 1 7
32 2 6
32 3 11
32 4 5
32 5 18
32 6 8
32 7 11
32 8 18
32 9 12
32 10 12
32 11 8
32 12 17
32 13 2
32 14 11
32 15 20
32 16 8
32 17 16
32 18 18
32 19 18
32 20 10
32 21 3
32 22 4
32 23 2
32 24 15
32 25 5
32 26 15
32 27 8
32 28 8
32 29 12
32 30 17
32 31 15
33 0 2
33 1 16
33 2 17
33 3 3
33 4 14
33 5 6
33 6 13
33 7 17
33 8 12
33 9 17
33 10 3
33 11 3
33 12 16
33 13 4
33 14 14
33 15 6
33 16 15
33 17 14
33 18 1
33 19 13
33 20 14
33 21 18
33 22 20
33 23 12
33 24 16
33 25 4
33 26 3
33 27 15
33 28 5
33 29 14
33 30 9
33 31 2
33 32 15
34 0 14
34 1 6
34 2 14
34 3 6
34 4 14
34 5 15
34 6 19
34 7 11
34 8 9
34 9 18
34 10 7
34 11 6
34 12 9
34 13 15
34 14 1
34 15 4
34 16 19
34 17 18
34 18 10
34 19 4
34 20 8
34 21 14
34 22 18
34 23 12
34 24 7
34 25 16
34 26 5
34 27 3
34 28 14
34 29 11
34 30 4
34 31 3
34 32 2
34 33 8
35 0 19
35 1 9
35 2 16
35 3 14
35 4 4
35 5 4
35 6 2
35 7 14
35 8 14
35 9 1
35 10 8
35 11 14
35 12 7
35 13 2
35 14 1
35 15 20
35 16 2
35 17 20
35 18 20
35 19 18
35 20 5
35 21 2
35 22 1
35 23 19
35 24 13
35 25 6
35 26 1
35 27 13
35 28 15
35 29 1
35 30 17
35 31 9
35 32 6
35 33 16
35 34 18
36 0 3
36 1 4
36 2 11
36 3 17
36 4 3
36 5 19
36 6 20
36 7 17
36 8 18
36 9 15
36 10 9
36 11 1
36 12 5
36 13 13
36 14 17
36 15 2
36 16 15
36 17 4
36 18 8
36 19 14
36 20 14
36 21 17
36 22 11
36 23 3
36 24 13
36 25 16
36 26 12
36 27 20
36 28 19
36 29 1
36 30 10
36 31 17
36 32 4
36 33 2
36 34 8
36 35 3
37 0 16
37 1 9
37 2 1
37 3 1
37 4 3
37 5 9
37 6 4
37 7 16
37 8 15
37 9 10
37 10 6
37 11 8
37 12 12
37 13 3
37 14 7
37 15 15
37 16 16
37 17 13
37 18 2
37 19 9
37 20 13
37 21 3
37 22 2
37 23 1
37 24 10
37 25 13
37 26 14
37 27 11
37 28 18
37 29 20
37 30 14
37 31 6
37 32 10
37 33 5
37 34 18
37 35 1
37 36 7
38 0 10
38 1 13
38 2 5
38 3 10
38 4 6
38 5 8
38 6 6
38 7 17
38 8 6
38 9 15
38 10 1
38 11 5
38 12 9
38 13 6
38 14 19
38 15 15
38 16 15
38 17 13
38 18 4
38 19 9
38 20 19
38 21 9
38 22 3
38 23 10
38 24 19
38 25 7
38 26 10
38 27 11
38 28 8
38 29 13
38 30 1
38 31 4
38 32 5
38 33 8
38 34 14
38 35 5
38 36 7
38 37 6
39 0 1
39 1 16
39 2 5
39 3 11
39 4 1
39 5 9
39 6 1
39 7 8
39 8 6
39 9 16
39 10 16
39 11 1
39 12 13
39 13 17
39 14 14
39 15 7
39 16 7
39 17 15
39 18 11
39 19 8
39 20 7
39 21 2
39 22 6
39 23 20
39 24 12
39 25 3
39 26 8
39 27 2
39 28 2
39 29 6
39 30 16
39 31 6
39 32 2
39 33 5
39 34 1
39 35 5
39 36 8
39 37 10
39 38 10
40 0 8
40 1 5
40 2 4
40 3 2
40 4 10
40 5 19
40 6 3
40 7 12
40 8 9
40 9 13
40 10 19
40 11 1
40 12 6
40 13 4
40 14 7
40 15 19
40 16 11
40 17 16
40 18 1
40 19 9
40 20 6
40 21 8
40 22 4
40 23 18
40 24 9
40 25 7
40 26 10
40 27 15
40 28 3
40 29 15
40 30 9
40 31 16
40 32 18
40 33 15
40 34 13
40 35 10
40 36 10
40 37 4
40 38 20
40 39 11
41 0 1
41 1 13
41 2 16
41 3 11
41 4 20
41 5 1
41 6 2
41 7 5
41 8 17
41 9 16
41 10 20
41 11 20
41 12 2
41 13 13
41 14 10
41 15 9
41 16 8
41 17 8
41 18 18
41 19 6
41 20 11
41 21 8
41 22 16
41 23 17
41 24 13
41 25 6
41 26 2
41 27 17
41 28 9
41 29 5
41 30 18
41 31 5
41 32 8
41 33 7
41 34 18
41 35 12
41 36 13
41 37 4
41 38 8
41 39 4
41 40 3
42 0 17
42 1 1
42 2 17
42 3 19
42 4 8
42 5 14
42 6 19
42 7 5
42 8 20
42 9 18
42 10 2
42 11 3
42 12 10
42 13 4
42 14 16
42 15 9
42 16 6
42 17 5
42 18 11
42 19 14
42 20 5
42 21 4
42 22 2
42 23 9
42 24 10
42 25 14
42 26 3
42 27 9
42 28 9
42 29 13
42 30 5
42 31 2
42 32 17
42 33 1
42 34 10
42 35 13
42 36 2
42 37 19
42 38 17
42 39 1
42 40 2
42 41 10
43 0 6
43 1 3
43 2 5
43 3 13
43 4 11
43 5 3
43 6 7
43 7 10
43 8 14
43 9 1
43 10 14
43 11 15
43 12 14
43 13 17
43 14 13
43 15 9
43 16 19
43 17 5
43 18 4
43 19 3
43 20 13
43 21 14
43 22 4
43 23 9
43 24 5
43 25 16
43 26 2
43 27 15
43 28 19
43 29 20
43 30 6
43 31 7
43 32 19
43 33 18
43 34 3
43 35 16
43 36 12
43 37 19
43 38 5
43 39 16
43 40 9
43 41 13
43 42 13
44 0 14
44 1 2
44 2 7
44 3 14
44 4 12
44 5 18
44 6 10
44 7 19
44 8 19
44 9 10
44 10 18
44 11 13
44 12 1
44 13 14
44 14 16
44 15 4
44 16 16
44 17 13
44 18 19
44 19 1
44 20 7
44 21 7
44 22 13
44 23 10
44 24 20
44 25 18
44 26 14
44 27 14
44 28 4
44 29 5
44 30 16
44 31 8
44 32 6
44 33 1
44 34 19
44 35 19
44 36 18
44 37 6
44 38 19
44 39 11
44 40 14
44 41 7
44 42 7
44 43 2
45 0 15
45 1 14
45 2 12
45 3 15
45 4 16
45 5 3
45 6 2
45 7 19
45 8 9
45 9 4
45 10 9
45 11 9
45 12 2
45 13 11
45 14 6
45 15 5
45 16 19
45 17 2
45 18 15
45 19 6
45 20 12
45 21 6
45 22 11
45 23 13
45 24 1
45 25 19
45 26 11
45 27 6
45 28 5
45 29 4
45 30 9
45 31 2
45 32 8
45 33 20
45 34 7
45 35 20
45 36 5
45 37 15
45 38 3
45 39 20
45 40 10
45 41 3
45 42 13
45 43 6
45 44 19
46 0 11
46 1 13
46 2 15
46 3 18
46 4 19
46 5 8
46 6 5
46 7 8
46 8 18
46 9 14
46 10 19
46 11 8
46 12 15
46 13 1
46 14 9
46 15 13
46 16 19
46 17 18
46 18 2
46 19 10
46 20 5
46 21 8
46 22 9
46 23 2
46 24 5
46 25 14
46 26 20
46 27 20
46 28 17
46 29 2
46 30 1
46 31 13
46 32 16
46 33 9
46 34 13
46 35 13
46 36 16
46 37 3
46 38 2
46 39 18
46 40 8
46 41 6
46 42 10
46 43 19
46 44 16
46 45 18
47 0 7
47 1 15
47 2 13
47 3 10
47 4 15
47 5 1
47 6 8
47 7 18
47 8 20
47 9 13
47 10 3
47 11 5
47 12 14
47 13 16
47 14 7
47 15 12
47 16 6
47 17 18
47 18 10
47 19 17
47 20 1
47 21 2
47 22 2
47 23 13
47 24 14
47 25 8
47 26 4
47 27 11
47 28 9
47 29 19
47 30 11
47 31 19
47 32 15
47 33 3
47 34 12
47 35 1
47 36 2
47 37 5
47 38 20
47 39 14
47 40 6
47 41 8
47 42 16
47 43 19
47 44 1
47 45 19
47 46 6
48 0 17
48 1 16
48 2 19
48 3 6
48 4 8
48 5 5
48 6 4
48 7 2
48 8 11
48 9 6
48 10 8
48 11 17
48 12 15
48 13 1
48 14 16
48 15 9
48 16 8
48 17 5
48 18 15
48 19 1
48 20 19
48 21 19
48 22 9
48 23 9
48 24 20
48 25 20
48 26 11
48 27 20
48 28 5
48 29 14
48 30 12
48 31 5
48 32 2
48 33 13
48 34 10
48 35 17
48 36 14
48 37 20
48 38 1
48 39 17
48 40 8
48 41 16
48 42 20
48 43 6
48 44 17
48 45 11
48 46 14
48 47 16
49 0 7
49 1 4
49 2 16
49 3 19
49 4 4
49 5 5
49 6 14
49 7 6
49 8 6
49 9 2
49 10 3
49 11 18
49 12 18
49 13 2
49 14 11
49 15 20
49 16 1
49 17 9
49 18 3
49 19 15
49 20 5
49 21 11
49 22 4
49 23 18
49 24 6
49 25 2
49 26 19
49 27 2
49 28 9
49 29 17
49 30 10
49 31 9
49 32 14
49 33 8
49 34 9
49 35 15
49 36 20
49 37 1
49 38 15
49 39 8
49 40 2
49 41 3
49 42 11
49 43 12
49 44 11
49 45 14
49 46 4
49 47 16
49 48 12
50 0 18
50 1 12
50 2 2
50 3 4
50 4 5
50 5 18
50 6 4
50 7 15
50 8 5
50 9 5
50 10 19
50 11 9
50 12 9
50 13 12
50 14 12
50 15 2
50 16 3
50 17 15
50 18 4
50 19 13
50 20 2
50 21 13
50 22 9
50 23 10
50 24 13
50 25 9
50 26 6
50 27 11
50 28 11
50 29 4
50 30 15
50 31 11
50 32 15
50 33 3
50 34 13
50 35 2
50 36 11
50 37 11
50 38 12
50 39 8
50 40 18
50 41 3
50 42 11
50 43 19
50 44 1
50 45 9
50 46 13
50 47 6
50 48 11
50 49 3
51 0 2
51 1 4
51 2 19
51 3 12
51 4 19
51 5 7
51 6 3
51 7 10
51 8 10
51 9 18
51 10 4
51 11 8
51 12 16
51 13 12
51 14 5
51 15 10
51 16 1
51 17 16
51 18 9
51 19 13
51 20 19
51 21 16
51 22 8
51 23 13
51 24 7
51 25 19
51 26 11
51 27 13
51 28 1
51 29 7
51 30 16
51 31 13
51 32 3
51 33 8
51 34 9
51 35 17
51 36 17
51 37 16
51 38 12
51 39 1
51 40 9
51 41 16
51 42 5
51 43 10
51 44 9
51 45 15
51 46 8
51 47 14
51 48 5
51 49 2
51 50 15
52 0 11
52 1 14
52 2 6
52 3 5
52 4 12
52 5 9
52 6 2
52 7 12
52 8 9
52 9 12
52 10 4
52 11 11
52 12 3
52 13 10
52 14 7
52 15 13
52 16 5
52 17 11
52 18 19
52 19 16
52 20 5
52 21 7
52 22 12
52 23 12
52 24 16
52 25 14
52 26 11
52 27 6
52 28 13
52 29 14
52 30 11
52 31 6
52 32 3
52 33 16
52 34 14
52 35 4
52 36 2
52 37 2
52 38 12
52 39 10
52 40 14
52 41 2
52 42 10
52 43 1
52 44 14
52 45 19
52 46 7
52 47 9
52 48 5
52 49 3
52 50 1
52 51 9
53 0 7
53 1 10
53 2 10
53 3 11
53 4 4
53 5 7
53 6 10
53 7 5
53 8 4
53 9 13
53 10 8
53 11 6
53 12 16
53 13 5
53 14 4
53 15 15
53 16 14
53 17 19
53 18 17
53 19 20
53 20 14
53 21 3
53 22 8
53 23 11
53 24 16
53 25 6
53 26 12
53 27 14
53 28 11
53 29 1
53 30 17
53 31 11
53 32 18
53 33 17
53 34 7
53 35 7
53 36 14
53 37 12
53 38 19
53 39 4
53 40 14
53 41 8
53 42 3
53 43 11
53 44 19
53 45 5
53 46 18
53 47 5
53 48 16
53 49 4
53 50 7
53 51 1
53 52 14
54 0 16
54 1 4
54 2 11
54 3 11
54 4 10
54 5 2
54 6 11
54 7 18
54 8 18
54 9 13
54 10 13
54 11 6
54 12 3
54 13 8
54 14 4
54 15 8
54 16 17
54 17 1
54 18 19
54 19 18
54 20 13
54 21 7
54 22 17
54 23 3
54 24 11
54 25 17
54 26 4
54 27 16
54 28 2
54 29 7
54 30 11
54 31 20
54 32 13
54 33 8
54 34 20
54 35 7
54 36 1
54 37 7
54 38 13
54 39 18
54 40 2
54 41 18
54 42 1
54 43 14
54 44 1
54 45 4
54 46 16
54 47 2
54 48 8
54 49 6
54 50 11
54 51 13
54 52 15
54 53 13
55 0 2
55 1 11
55 2 13
55 3 16
55 4 13
55 5 10
55 6 1
55 7 15
55 8 4
55 9 9
55 10 3
55 11 6
55 12 14
55 13 10
55 14 3
55 15 3
55 16 10
55 17 16
55 18 18
55 19 2
55 20 7
55 21 13
55 22 16
55 23 3
55 24 7
55 25 5
55 26 11
55 27 7
55 28 8
55 29 16
55 30 18
55 31 4
55 32 15
55 33 19
55 34 4
55 35 14
55 36 9
55 37 3
55 38 18
55 39 17
55 40 3
55 41 9
55 42 19
55 43 13
55 44 11
55 45 4
55 46 3
55 47 7
55 48 15
55 49 6
55 50 16
55 51 14
55 52 8
55 53 20
55 54 1
56 0 13
56 1 4
56 2 13
56 3 16
56 4 18
56 5 11
56 6 16
56 7 13
56 8 16
56 9 17
56 10 5
56 11 4
56 12 19
56 13 8
56 14 3
56 15 8
56 16 2
56 17 2
56 18 14
56 19 2
56 20 16
56 21 15
56 22 4
56 23 14
56 24 14
56 25 8
56 26 4
56 27 18
56 28 11
56 29 16
56 30 13
56 31 10
56 32 8
56 33 13
56 34 4
56 35 6
56 36 11
56 37 5
56 38 14
56 39 17
56 40 6
56 41 14
56 42 14
56 43 6
56 44 14
56 45 11
56 46 17
56 47 5
56 48 18
56 49 11
56 50 15
56 51 7
56 52 3
56 53 3
56 54 14
56 55 2
57 0 12
57 1 3
57 2 6
57 3 19
57 4 18
57 5 2
57 6 5
57 7 1
57 8 13
57 9 15
57 10 15
57 11 1
57 12 6
57 13 17
57 14 14
57 15 5
57 16 16
57 17 14
57 18 3
57 19 20
57 20 1
57 21 16
57 22 5
57 23 11
57 24 8
57 25 3
57 26 4
57 27 10
57 28 1
57 29 11
57 30 19
57 31 11
57 32 16
57 33 12
57 34 4
57 35 17
57 36 4
57 37 20
57 38 4
57 39 1
57 40 12
57 41 3
57 42 18
57 43 3
57 44 11
57 45 6
57 46 2
57 47 13
57 48 1
57 49 2
57 50 7
57 51 2
57 52 9
57 53 14
57 54 18
57 55 19
57 56 3
58 0 20
58 1 20
58 2 13
58 3 14
58 4 19
58 5 5
58 6 10
58 7 8
58 8 14
58 9 1
58 10 16
58 11 17
58 12 17
58 13 3
58 14 12
58 15 11
58 16 13
58 17 11
58 18 4
58 19 16
58 20 10
58 21 1
58 22 1
58 23 10
58 24 15
58 25 5
58 26 18
58 27 17
58 28 20
58 29 12
58 30 1
58 31 4
58 32 17
58 33 12
58 34 6
58 35 14
58 36 16
58 37 10
58 38 14
58 39 6
58 40 17
58 41 5
58 42 15
58 43 18
58 44 16
58 45 19
58 46 16
58 47 5
58 48 7
58 49 2
58 50 8
58 51 11
58 52 6
58 53 6
58 54 5
58 55 18
58 56 18
58 57 2
59 0 7
59 1 4
59 2 1
59 3 5
59 4 13
59 5 9
59 6 10
59 7 13
59 8 20
59 9 18
59 10 7
59 11 4
59 12 17
59 13 7
59 14 5
59 15 6
59 16 8
59 17 18
59 18 20
59 19 9
59 20 3
59 21 3
59 22 20
59 23 17
59 24 1
59 25 17
59 26 3
59 27 19
59 28 15
59 29 4
59 30 1
59 31 5
59 32 13
59 33 6
59 34 15
59 35 9
59 36 20
59 37 16
59 38 19
59 39 12
59 40 7
59 41 8
59 42 17
59 43 2
59 44 11
59 45 17
59 46 3
59 47 13
59 48 15
59 49 13
59 50 20
59 51 3
59 52 15
59 53 15
59 54 4
59 55 19
59 56 11
59 57 7
59 58 1
60 0 7
60 1 8
60 2 6
60 3 12
60 4 12
60 5 3
60 6 15
60 7 2
60 8 12
60 9 1
60 10 15
60 11 16
60 12 15
60 13 5
60 14 1
60 15 20
60 16 20
60 17 16
60 18 8
60 19 5
60 20 6
60 21 4
60 22 2
60 23 1
60 24 1
60 25 11
60 26 13
60 27 16
60 28 3
60 29 1
60 30 16
60 31 20
60 32 15
60 33 8
60 34 17
60 35 16
60 36 16
60 37 17
60 38 8
60 39 7
60 40 8
60 41 16
60 42 5
60 43 8
60 44 15
60 45 8
60 46 6
60 47 20
60 48 11
60 49 3
60 50 16
60 51 16
60 52 17
60 53 20
60 54 19
60 55 6
60 56 11
60 57 13
60 58 6
60 59 2
